(set-info :smt-lib-version 2.6)
(set-logic AUFNIRA)
(set-info :source |
Encoded by: Mirek Olšák, Mikoláš Janota, Chad E. Brown
From a collection by: Vít Musil
Source url: https://prase.cz/library/FunkcionalniRovniceVM/FunkcionalniRovniceVM.pdf
Problem number: Úloha 8, Úloha 86
Original source: PraSe-27-8-7b
|)
(set-info :license "https://creativecommons.org/licenses/by-nc/4.0/")
(set-info :category "crafted")
(set-info :status sat)

; Header
(declare-fun f (Real) Real)

; Equations
(assert (forall ((x Real) (y Real)) (= (f (+ x (f y))) (+ (+ (f x) (* (f y) (f y))) (* (* 2.0 x) (f y))))))

; Find all possible f

(check-sat)
(exit)
(get-model)
